NAME : Unnamed.864.tour
COMMENT : Length = 864
COMMENT : Found by LKH [Keld Helsgaun] Wed Oct 22 13:40:04 2014
TYPE : TOUR
DIMENSION : 107
TOUR_SECTION
1
18
34
48
62
55
50
43
71
65
63
53
37
56
41
42
61
74
57
52
64
46
75
67
70
72
97
106
66
73
69
102
104
105
100
99
103
101
80
77
98
45
51
47
44
68
76
39
58
40
38
59
60
49
54
4
5
11
19
107
16
36
28
10
27
17
15
13
21
92
89
6
9
7
2
31
26
20
14
29
3
35
22
12
8
30
78
81
86
91
90
83
79
94
84
87
85
88
82
96
95
93
24
33
23
25
32
-1
EOF
